letting np_cars_plus be 132
letting np_classes be 27
letting np_options be 28
letting quantity_range_min be 2
letting quantity_range_delta be 48
letting maxcars_range_min be 2
letting maxcars_range_delta be 1
letting blksize_delta_range_min be 2
letting blksize_delta_range_delta be 3
letting usage_card_min be 128
letting usage_card_delta be 95